FourierSAT_Github_AIJ/benchmarks/MAXSAT_benchmarks/random/1/dimacs-mod/johnson8-2-4.clq.cnf
c File:  johnson8-2-4.clq
c
c Source: Panos Pardalos pardalos@math.ufl.edu
c
c Reference: Johnson graph: johnsona-b-c is generated by
c            binary vectors of length a and weight b, with
c            two vertices adjacent if the hamming distance
c            between them is at least d.
c
p cnf 28 420
1 6 0
-1 -6 0
1 9 0
-1 -9 0
1 10 0
-1 -10 0
1 13 0
-1 -13 0
1 14 0
-1 -14 0
1 15 0
-1 -15 0
1 18 0
-1 -18 0
1 19 0
-1 -19 0
1 20 0
-1 -20 0
1 21 0
-1 -21 0
1 24 0
-1 -24 0
1 25 0
-1 -25 0
1 26 0
-1 -26 0
1 27 0
-1 -27 0
1 28 0
-1 -28 0
2 5 0
-2 -5 0
2 8 0
-2 -8 0
2 10 0
-2 -10 0
2 12 0
-2 -12 0
2 14 0
-2 -14 0
2 15 0
-2 -15 0
2 17 0
-2 -17 0
2 19 0
-2 -19 0
2 20 0
-2 -20 0
2 21 0
-2 -21 0
2 23 0
-2 -23 0
2 25 0
-2 -25 0
2 26 0
-2 -26 0
2 27 0
-2 -27 0
2 28 0
-2 -28 0
3 4 0
-3 -4 0
3 7 0
-3 -7 0
3 10 0
-3 -10 0
3 11 0
-3 -11 0
3 14 0
-3 -14 0
3 15 0
-3 -15 0
3 16 0
-3 -16 0
3 19 0
-3 -19 0
3 20 0
-3 -20 0
3 21 0
-3 -21 0
3 22 0
-3 -22 0
3 25 0
-3 -25 0
3 26 0
-3 -26 0
3 27 0
-3 -27 0
3 28 0
-3 -28 0
4 8 0
-4 -8 0
4 9 0
-4 -9 0
4 12 0
-4 -12 0
4 13 0
-4 -13 0
4 15 0
-4 -15 0
4 17 0
-4 -17 0
4 18 0
-4 -18 0
4 20 0
-4 -20 0
4 21 0
-4 -21 0
4 23 0
-4 -23 0
4 24 0
-4 -24 0
4 26 0
-4 -26 0
4 27 0
-4 -27 0
4 28 0
-4 -28 0
5 7 0
-5 -7 0
5 9 0
-5 -9 0
5 11 0
-5 -11 0
5 13 0
-5 -13 0
5 15 0
-5 -15 0
5 16 0
-5 -16 0
5 18 0
-5 -18 0
5 20 0
-5 -20 0
5 21 0
-5 -21 0
5 22 0
-5 -22 0
5 24 0
-5 -24 0
5 26 0
-5 -26 0
5 27 0
-5 -27 0
5 28 0
-5 -28 0
6 7 0
-6 -7 0
6 8 0
-6 -8 0
6 11 0
-6 -11 0
6 12 0
-6 -12 0
6 15 0
-6 -15 0
6 16 0
-6 -16 0
6 17 0
-6 -17 0
6 20 0
-6 -20 0
6 21 0
-6 -21 0
6 22 0
-6 -22 0
6 23 0
-6 -23 0
6 26 0
-6 -26 0
6 27 0
-6 -27 0
6 28 0
-6 -28 0
7 12 0
-7 -12 0
7 13 0
-7 -13 0
7 14 0
-7 -14 0
7 17 0
-7 -17 0
7 18 0
-7 -18 0
7 19 0
-7 -19 0
7 21 0
-7 -21 0
7 23 0
-7 -23 0
7 24 0
-7 -24 0
7 25 0
-7 -25 0
7 27 0
-7 -27 0
7 28 0
-7 -28 0
8 11 0
-8 -11 0
8 13 0
-8 -13 0
8 14 0
-8 -14 0
8 16 0
-8 -16 0
8 18 0
-8 -18 0
8 19 0
-8 -19 0
8 21 0
-8 -21 0
8 22 0
-8 -22 0
8 24 0
-8 -24 0
8 25 0
-8 -25 0
8 27 0
-8 -27 0
8 28 0
-8 -28 0
9 11 0
-9 -11 0
9 12 0
-9 -12 0
9 14 0
-9 -14 0
9 16 0
-9 -16 0
9 17 0
-9 -17 0
9 19 0
-9 -19 0
9 21 0
-9 -21 0
9 22 0
-9 -22 0
9 23 0
-9 -23 0
9 25 0
-9 -25 0
9 27 0
-9 -27 0
9 28 0
-9 -28 0
10 11 0
-10 -11 0
10 12 0
-10 -12 0
10 13 0
-10 -13 0
10 16 0
-10 -16 0
10 17 0
-10 -17 0
10 18 0
-10 -18 0
10 21 0
-10 -21 0
10 22 0
-10 -22 0
10 23 0
-10 -23 0
10 24 0
-10 -24 0
10 27 0
-10 -27 0
10 28 0
-10 -28 0
11 17 0
-11 -17 0
11 18 0
-11 -18 0
11 19 0
-11 -19 0
11 20 0
-11 -20 0
11 23 0
-11 -23 0
11 24 0
-11 -24 0
11 25 0
-11 -25 0
11 26 0
-11 -26 0
11 28 0
-11 -28 0
12 16 0
-12 -16 0
12 18 0
-12 -18 0
12 19 0
-12 -19 0
12 20 0
-12 -20 0
12 22 0
-12 -22 0
12 24 0
-12 -24 0
12 25 0
-12 -25 0
12 26 0
-12 -26 0
12 28 0
-12 -28 0
13 16 0
-13 -16 0
13 17 0
-13 -17 0
13 19 0
-13 -19 0
13 20 0
-13 -20 0
13 22 0
-13 -22 0
13 23 0
-13 -23 0
13 25 0
-13 -25 0
13 26 0
-13 -26 0
13 28 0
-13 -28 0
14 16 0
-14 -16 0
14 17 0
-14 -17 0
14 18 0
-14 -18 0
14 20 0
-14 -20 0
14 22 0
-14 -22 0
14 23 0
-14 -23 0
14 24 0
-14 -24 0
14 26 0
-14 -26 0
14 28 0
-14 -28 0
15 16 0
-15 -16 0
15 17 0
-15 -17 0
15 18 0
-15 -18 0
15 19 0
-15 -19 0
15 22 0
-15 -22 0
15 23 0
-15 -23 0
15 24 0
-15 -24 0
15 25 0
-15 -25 0
15 28 0
-15 -28 0
16 23 0
-16 -23 0
16 24 0
-16 -24 0
16 25 0
-16 -25 0
16 26 0
-16 -26 0
16 27 0
-16 -27 0
17 22 0
-17 -22 0
17 24 0
-17 -24 0
17 25 0
-17 -25 0
17 26 0
-17 -26 0
17 27 0
-17 -27 0
18 22 0
-18 -22 0
18 23 0
-18 -23 0
18 25 0
-18 -25 0
18 26 0
-18 -26 0
18 27 0
-18 -27 0
19 22 0
-19 -22 0
19 23 0
-19 -23 0
19 24 0
-19 -24 0
19 26 0
-19 -26 0
19 27 0
-19 -27 0
20 22 0
-20 -22 0
20 23 0
-20 -23 0
20 24 0
-20 -24 0
20 25 0
-20 -25 0
20 27 0
-20 -27 0
21 22 0
-21 -22 0
21 23 0
-21 -23 0
21 24 0
-21 -24 0
21 25 0
-21 -25 0
21 26 0
-21 -26 0
