FourierSAT_Github_AIJ/res/fs_1core/johnson8-2-4.clq.cnf.txt
o 81
o 75
